c turning on binary mode checking
c parsing input formula with 259840 variables and 1039929 clauses
c finished parsing, read 23133368 bytes from proof file
c detected empty clause; start verification via backward checking
c 9827 of 1039929 clauses in core                            
c 7593 of 600902 lemmas in core using 80994 resolution steps
c 0 RAT lemmas in core; 721 redundant literals in core lemmas
s VERIFIED
c verification time: 2.748 seconds
